162 5
10 10 10 10 10 

0 0 0 0 0 0 1 2 
0 0 0 0 0 0 2 3 5 
4 0 7 0 0 0 2 7 4 
3 0 6 0 0 0 1 6 
3 0 6 0 0 0 1 6 
10 0 6 0 0 0 2 12 8 
8 0 2 0 0 0 2 12 8 
1 0 10 0 0 0 1 9 
7 0 10 0 0 0 1 10 
5 0 8 0 0 0 1 11 
1 0 10 0 0 0 1 13 
3 0 10 0 0 0 1 13 
0 0 0 0 0 0 1 14 
0 0 0 0 0 0 3 15 16 18 
9 0 0 4 0 0 1 17 
5 0 0 6 0 0 1 17 
1 0 0 5 0 0 2 22 19 
3 0 0 5 0 0 2 22 20 
8 0 0 10 0 0 1 20 
6 0 0 7 0 0 1 21 
6 0 0 10 0 0 1 23 
8 0 0 8 0 0 1 23 
10 0 0 10 0 0 1 24 
8 0 0 10 0 0 1 25 
0 0 0 0 0 0 1 26 
0 0 0 0 0 0 2 27 29 
1 0 0 0 0 3 1 28 
10 0 0 0 0 6 2 33 30 
7 0 0 0 0 7 2 33 31 
6 0 0 0 0 10 1 31 
7 0 0 0 0 8 1 32 
10 0 0 0 0 8 1 34 
2 0 0 0 0 9 1 34 
3 0 0 0 0 7 2 36 35 
9 0 0 0 0 9 1 37 
5 0 0 0 0 8 1 37 
0 0 0 0 0 0 5 38 60 82 94 116 
0 0 0 0 0 0 2 39 41 
5 4 0 0 3 0 2 44 40 
8 7 0 0 5 0 1 42 
7 9 0 0 9 0 1 42 
4 5 0 0 10 0 1 43 
10 10 0 0 9 0 1 45 
2 10 0 0 9 0 2 45 147 
4 9 0 0 8 0 2 51 46 
6 9 0 0 8 0 2 58 47 
3 5 0 0 10 0 1 48 
1 8 0 0 7 0 1 49 
2 6 0 0 6 0 2 57 50 
3 6 0 0 10 0 1 52 
1 5 0 0 9 0 1 52 
1 10 0 0 9 0 1 53 
2 8 0 0 6 0 1 54 
1 10 0 0 6 0 1 55 
4 7 0 0 6 0 1 56 
1 10 0 0 5 0 1 59 
9 8 0 0 7 0 1 59 
7 4 0 0 8 0 1 59 
0 0 0 0 0 0 1 162 
0 0 0 0 0 0 1 61 
4 0 5 0 0 3 2 65 62 
3 0 10 0 0 6 2 68 63 
4 0 8 0 0 6 1 64 
2 0 8 0 0 9 1 66 
6 0 9 0 0 9 1 66 
4 0 10 0 0 10 2 71 67 
6 0 5 0 0 5 2 75 69 
1 0 8 0 0 9 2 75 69 
2 0 8 0 0 9 1 70 
2 0 10 0 0 6 1 72 
2 0 10 0 0 8 1 72 
10 0 8 0 0 8 2 80 73 
5 0 7 0 0 5 1 74 
1 0 7 0 0 10 1 76 
1 0 5 0 0 7 1 76 
1 0 8 0 0 8 1 77 
7 0 8 0 0 4 1 78 
2 0 7 0 0 10 1 79 
6 0 3 0 0 8 1 81 
5 0 6 0 0 10 1 81 
0 0 0 0 0 0 1 162 
0 0 0 0 0 0 2 83 87 
5 0 0 0 2 0 1 84 
8 0 0 0 5 0 2 90 85 
2 0 0 0 10 0 1 86 
7 0 0 0 7 0 2 92 88 
7 0 0 0 7 0 2 90 89 
9 0 0 0 8 0 1 89 
6 0 0 0 8 0 1 91 
10 0 0 0 9 0 1 92 
8 0 0 0 10 0 1 93 
1 0 0 0 9 0 1 93 
0 0 0 0 0 0 2 138 150 
0 0 0 0 0 0 1 95 
6 3 0 0 3 0 2 99 96 
8 5 0 0 7 0 1 97 
6 6 0 0 4 0 1 98 
10 9 0 0 9 0 2 103 100 
3 5 0 0 9 0 2 103 100 
4 7 0 0 8 0 1 101 
5 5 0 0 9 0 1 102 
9 10 0 0 9 0 2 109 104 
5 10 0 0 6 0 2 109 104 
1 7 0 0 10 0 1 105 
9 7 0 0 6 0 2 108 106 
8 10 0 0 6 0 1 107 
5 6 0 0 10 0 2 112 110 
6 10 0 0 9 0 2 112 111 
1 10 0 0 6 0 1 110 
2 6 0 0 7 0 1 111 
3 9 0 0 7 0 1 113 
3 10 0 0 6 0 1 113 
3 9 0 0 10 0 1 114 
2 6 0 0 9 0 1 115 
0 0 0 0 0 0 1 162 
0 0 0 0 0 0 3 117 120 121 
8 0 5 0 5 0 1 118 
7 0 5 0 9 0 1 119 
1 0 9 0 4 0 3 136 131 122 
8 0 8 0 9 0 3 136 131 122 
6 0 5 0 6 0 3 136 131 124 
10 0 9 0 6 0 1 123 
5 0 9 0 9 0 1 124 
2 0 10 0 7 0 1 125 
7 0 5 0 10 0 1 126 
5 0 7 0 6 0 1 127 
5 0 8 0 10 0 2 135 128 
5 0 7 0 10 0 1 129 
5 0 10 0 8 0 1 130 
8 0 10 0 7 0 1 132 
7 0 8 0 6 0 1 132 
3 0 4 0 5 0 1 133 
2 0 9 0 8 0 1 134 
7 0 6 0 7 0 1 137 
3 0 7 0 8 0 1 137 
7 0 9 0 10 0 1 137 
0 0 0 0 0 0 1 162 
0 0 0 0 0 0 3 139 142 145 
9 0 0 4 0 0 1 140 
3 0 0 4 0 0 2 144 141 
10 0 0 7 0 0 1 143 
6 0 0 10 0 0 1 143 
2 0 0 10 0 0 1 146 
9 0 0 5 0 0 1 146 
1 0 0 7 0 0 1 146 
3 0 0 10 0 0 1 147 
3 0 0 10 0 0 1 148 
3 0 0 8 0 0 1 149 
0 0 0 0 0 0 1 162 
0 0 0 0 0 0 1 151 
4 3 0 0 0 0 1 152 
1 7 0 0 0 0 1 153 
7 10 0 0 0 0 1 154 
4 8 0 0 0 0 2 156 155 
9 10 0 0 0 0 2 158 157 
9 10 0 0 0 0 2 160 158 
2 9 0 0 0 0 2 160 159 
5 8 0 0 0 0 1 159 
10 5 0 0 0 0 1 161 
8 5 0 0 0 0 1 161 
0 0 0 0 0 0 1 162 
0 0 0 0 0 0 0 
